c File: flat200_3_0.col
c
c SOURCE: Joseph Culberson (joe@cs.ualberta.ca)
c DESCRIPTION: Quasi-random coloring problem
c              generated with flatness = 0
c                             probability = 0.036
c                             known coloring = 3
c                             random seed = 1001
c              Creation Date:  Wed Feb 24 10:39:30 1999
c Maximum degree = 8 Minimum degree = 1
c COLOR VERIFICATION: Using the permuted order
c under simple greedy yields the specified
c coloring number
c Color = 3 specified partitions = 3
c p edge 200 479
c cnf created by edge2cnf
p cnf 600 2237
-1 -2 0
-1 -3 0
-2 -3 0
1 2 3 0
-4 -5 0
-4 -6 0
-5 -6 0
4 5 6 0
-7 -8 0
-7 -9 0
-8 -9 0
7 8 9 0
-10 -11 0
-10 -12 0
-11 -12 0
10 11 12 0
-13 -14 0
-13 -15 0
-14 -15 0
13 14 15 0
-16 -17 0
-16 -18 0
-17 -18 0
16 17 18 0
-19 -20 0
-19 -21 0
-20 -21 0
19 20 21 0
-22 -23 0
-22 -24 0
-23 -24 0
22 23 24 0
-25 -26 0
-25 -27 0
-26 -27 0
25 26 27 0
-28 -29 0
-28 -30 0
-29 -30 0
28 29 30 0
-31 -32 0
-31 -33 0
-32 -33 0
31 32 33 0
-34 -35 0
-34 -36 0
-35 -36 0
34 35 36 0
-37 -38 0
-37 -39 0
-38 -39 0
37 38 39 0
-40 -41 0
-40 -42 0
-41 -42 0
40 41 42 0
-43 -44 0
-43 -45 0
-44 -45 0
43 44 45 0
-46 -47 0
-46 -48 0
-47 -48 0
46 47 48 0
-49 -50 0
-49 -51 0
-50 -51 0
49 50 51 0
-52 -53 0
-52 -54 0
-53 -54 0
52 53 54 0
-55 -56 0
-55 -57 0
-56 -57 0
55 56 57 0
-58 -59 0
-58 -60 0
-59 -60 0
58 59 60 0
-61 -62 0
-61 -63 0
-62 -63 0
61 62 63 0
-64 -65 0
-64 -66 0
-65 -66 0
64 65 66 0
-67 -68 0
-67 -69 0
-68 -69 0
67 68 69 0
-70 -71 0
-70 -72 0
-71 -72 0
70 71 72 0
-73 -74 0
-73 -75 0
-74 -75 0
73 74 75 0
-76 -77 0
-76 -78 0
-77 -78 0
76 77 78 0
-79 -80 0
-79 -81 0
-80 -81 0
79 80 81 0
-82 -83 0
-82 -84 0
-83 -84 0
82 83 84 0
-85 -86 0
-85 -87 0
-86 -87 0
85 86 87 0
-88 -89 0
-88 -90 0
-89 -90 0
88 89 90 0
-91 -92 0
-91 -93 0
-92 -93 0
91 92 93 0
-94 -95 0
-94 -96 0
-95 -96 0
94 95 96 0
-97 -98 0
-97 -99 0
-98 -99 0
97 98 99 0
-100 -101 0
-100 -102 0
-101 -102 0
100 101 102 0
-103 -104 0
-103 -105 0
-104 -105 0
103 104 105 0
-106 -107 0
-106 -108 0
-107 -108 0
106 107 108 0
-109 -110 0
-109 -111 0
-110 -111 0
109 110 111 0
-112 -113 0
-112 -114 0
-113 -114 0
112 113 114 0
-115 -116 0
-115 -117 0
-116 -117 0
115 116 117 0
-118 -119 0
-118 -120 0
-119 -120 0
118 119 120 0
-121 -122 0
-121 -123 0
-122 -123 0
121 122 123 0
-124 -125 0
-124 -126 0
-125 -126 0
124 125 126 0
-127 -128 0
-127 -129 0
-128 -129 0
127 128 129 0
-130 -131 0
-130 -132 0
-131 -132 0
130 131 132 0
-133 -134 0
-133 -135 0
-134 -135 0
133 134 135 0
-136 -137 0
-136 -138 0
-137 -138 0
136 137 138 0
-139 -140 0
-139 -141 0
-140 -141 0
139 140 141 0
-142 -143 0
-142 -144 0
-143 -144 0
142 143 144 0
-145 -146 0
-145 -147 0
-146 -147 0
145 146 147 0
-148 -149 0
-148 -150 0
-149 -150 0
148 149 150 0
-151 -152 0
-151 -153 0
-152 -153 0
151 152 153 0
-154 -155 0
-154 -156 0
-155 -156 0
154 155 156 0
-157 -158 0
-157 -159 0
-158 -159 0
157 158 159 0
-160 -161 0
-160 -162 0
-161 -162 0
160 161 162 0
-163 -164 0
-163 -165 0
-164 -165 0
163 164 165 0
-166 -167 0
-166 -168 0
-167 -168 0
166 167 168 0
-169 -170 0
-169 -171 0
-170 -171 0
169 170 171 0
-172 -173 0
-172 -174 0
-173 -174 0
172 173 174 0
-175 -176 0
-175 -177 0
-176 -177 0
175 176 177 0
-178 -179 0
-178 -180 0
-179 -180 0
178 179 180 0
-181 -182 0
-181 -183 0
-182 -183 0
181 182 183 0
-184 -185 0
-184 -186 0
-185 -186 0
184 185 186 0
-187 -188 0
-187 -189 0
-188 -189 0
187 188 189 0
-190 -191 0
-190 -192 0
-191 -192 0
190 191 192 0
-193 -194 0
-193 -195 0
-194 -195 0
193 194 195 0
-196 -197 0
-196 -198 0
-197 -198 0
196 197 198 0
-199 -200 0
-199 -201 0
-200 -201 0
199 200 201 0
-202 -203 0
-202 -204 0
-203 -204 0
202 203 204 0
-205 -206 0
-205 -207 0
-206 -207 0
205 206 207 0
-208 -209 0
-208 -210 0
-209 -210 0
208 209 210 0
-211 -212 0
-211 -213 0
-212 -213 0
211 212 213 0
-214 -215 0
-214 -216 0
-215 -216 0
214 215 216 0
-217 -218 0
-217 -219 0
-218 -219 0
217 218 219 0
-220 -221 0
-220 -222 0
-221 -222 0
220 221 222 0
-223 -224 0
-223 -225 0
-224 -225 0
223 224 225 0
-226 -227 0
-226 -228 0
-227 -228 0
226 227 228 0
-229 -230 0
-229 -231 0
-230 -231 0
229 230 231 0
-232 -233 0
-232 -234 0
-233 -234 0
232 233 234 0
-235 -236 0
-235 -237 0
-236 -237 0
235 236 237 0
-238 -239 0
-238 -240 0
-239 -240 0
238 239 240 0
-241 -242 0
-241 -243 0
-242 -243 0
241 242 243 0
-244 -245 0
-244 -246 0
-245 -246 0
244 245 246 0
-247 -248 0
-247 -249 0
-248 -249 0
247 248 249 0
-250 -251 0
-250 -252 0
-251 -252 0
250 251 252 0
-253 -254 0
-253 -255 0
-254 -255 0
253 254 255 0
-256 -257 0
-256 -258 0
-257 -258 0
256 257 258 0
-259 -260 0
-259 -261 0
-260 -261 0
259 260 261 0
-262 -263 0
-262 -264 0
-263 -264 0
262 263 264 0
-265 -266 0
-265 -267 0
-266 -267 0
265 266 267 0
-268 -269 0
-268 -270 0
-269 -270 0
268 269 270 0
-271 -272 0
-271 -273 0
-272 -273 0
271 272 273 0
-274 -275 0
-274 -276 0
-275 -276 0
274 275 276 0
-277 -278 0
-277 -279 0
-278 -279 0
277 278 279 0
-280 -281 0
-280 -282 0
-281 -282 0
280 281 282 0
-283 -284 0
-283 -285 0
-284 -285 0
283 284 285 0
-286 -287 0
-286 -288 0
-287 -288 0
286 287 288 0
-289 -290 0
-289 -291 0
-290 -291 0
289 290 291 0
-292 -293 0
-292 -294 0
-293 -294 0
292 293 294 0
-295 -296 0
-295 -297 0
-296 -297 0
295 296 297 0
-298 -299 0
-298 -300 0
-299 -300 0
298 299 300 0
-301 -302 0
-301 -303 0
-302 -303 0
301 302 303 0
-304 -305 0
-304 -306 0
-305 -306 0
304 305 306 0
-307 -308 0
-307 -309 0
-308 -309 0
307 308 309 0
-310 -311 0
-310 -312 0
-311 -312 0
310 311 312 0
-313 -314 0
-313 -315 0
-314 -315 0
313 314 315 0
-316 -317 0
-316 -318 0
-317 -318 0
316 317 318 0
-319 -320 0
-319 -321 0
-320 -321 0
319 320 321 0
-322 -323 0
-322 -324 0
-323 -324 0
322 323 324 0
-325 -326 0
-325 -327 0
-326 -327 0
325 326 327 0
-328 -329 0
-328 -330 0
-329 -330 0
328 329 330 0
-331 -332 0
-331 -333 0
-332 -333 0
331 332 333 0
-334 -335 0
-334 -336 0
-335 -336 0
334 335 336 0
-337 -338 0
-337 -339 0
-338 -339 0
337 338 339 0
-340 -341 0
-340 -342 0
-341 -342 0
340 341 342 0
-343 -344 0
-343 -345 0
-344 -345 0
343 344 345 0
-346 -347 0
-346 -348 0
-347 -348 0
346 347 348 0
-349 -350 0
-349 -351 0
-350 -351 0
349 350 351 0
-352 -353 0
-352 -354 0
-353 -354 0
352 353 354 0
-355 -356 0
-355 -357 0
-356 -357 0
355 356 357 0
-358 -359 0
-358 -360 0
-359 -360 0
358 359 360 0
-361 -362 0
-361 -363 0
-362 -363 0
361 362 363 0
-364 -365 0
-364 -366 0
-365 -366 0
364 365 366 0
-367 -368 0
-367 -369 0
-368 -369 0
367 368 369 0
-370 -371 0
-370 -372 0
-371 -372 0
370 371 372 0
-373 -374 0
-373 -375 0
-374 -375 0
373 374 375 0
-376 -377 0
-376 -378 0
-377 -378 0
376 377 378 0
-379 -380 0
-379 -381 0
-380 -381 0
379 380 381 0
-382 -383 0
-382 -384 0
-383 -384 0
382 383 384 0
-385 -386 0
-385 -387 0
-386 -387 0
385 386 387 0
-388 -389 0
-388 -390 0
-389 -390 0
388 389 390 0
-391 -392 0
-391 -393 0
-392 -393 0
391 392 393 0
-394 -395 0
-394 -396 0
-395 -396 0
394 395 396 0
-397 -398 0
-397 -399 0
-398 -399 0
397 398 399 0
-400 -401 0
-400 -402 0
-401 -402 0
400 401 402 0
-403 -404 0
-403 -405 0
-404 -405 0
403 404 405 0
-406 -407 0
-406 -408 0
-407 -408 0
406 407 408 0
-409 -410 0
-409 -411 0
-410 -411 0
409 410 411 0
-412 -413 0
-412 -414 0
-413 -414 0
412 413 414 0
-415 -416 0
-415 -417 0
-416 -417 0
415 416 417 0
-418 -419 0
-418 -420 0
-419 -420 0
418 419 420 0
-421 -422 0
-421 -423 0
-422 -423 0
421 422 423 0
-424 -425 0
-424 -426 0
-425 -426 0
424 425 426 0
-427 -428 0
-427 -429 0
-428 -429 0
427 428 429 0
-430 -431 0
-430 -432 0
-431 -432 0
430 431 432 0
-433 -434 0
-433 -435 0
-434 -435 0
433 434 435 0
-436 -437 0
-436 -438 0
-437 -438 0
436 437 438 0
-439 -440 0
-439 -441 0
-440 -441 0
439 440 441 0
-442 -443 0
-442 -444 0
-443 -444 0
442 443 444 0
-445 -446 0
-445 -447 0
-446 -447 0
445 446 447 0
-448 -449 0
-448 -450 0
-449 -450 0
448 449 450 0
-451 -452 0
-451 -453 0
-452 -453 0
451 452 453 0
-454 -455 0
-454 -456 0
-455 -456 0
454 455 456 0
-457 -458 0
-457 -459 0
-458 -459 0
457 458 459 0
-460 -461 0
-460 -462 0
-461 -462 0
460 461 462 0
-463 -464 0
-463 -465 0
-464 -465 0
463 464 465 0
-466 -467 0
-466 -468 0
-467 -468 0
466 467 468 0
-469 -470 0
-469 -471 0
-470 -471 0
469 470 471 0
-472 -473 0
-472 -474 0
-473 -474 0
472 473 474 0
-475 -476 0
-475 -477 0
-476 -477 0
475 476 477 0
-478 -479 0
-478 -480 0
-479 -480 0
478 479 480 0
-481 -482 0
-481 -483 0
-482 -483 0
481 482 483 0
-484 -485 0
-484 -486 0
-485 -486 0
484 485 486 0
-487 -488 0
-487 -489 0
-488 -489 0
487 488 489 0
-490 -491 0
-490 -492 0
-491 -492 0
490 491 492 0
-493 -494 0
-493 -495 0
-494 -495 0
493 494 495 0
-496 -497 0
-496 -498 0
-497 -498 0
496 497 498 0
-499 -500 0
-499 -501 0
-500 -501 0
499 500 501 0
-502 -503 0
-502 -504 0
-503 -504 0
502 503 504 0
-505 -506 0
-505 -507 0
-506 -507 0
505 506 507 0
-508 -509 0
-508 -510 0
-509 -510 0
508 509 510 0
-511 -512 0
-511 -513 0
-512 -513 0
511 512 513 0
-514 -515 0
-514 -516 0
-515 -516 0
514 515 516 0
-517 -518 0
-517 -519 0
-518 -519 0
517 518 519 0
-520 -521 0
-520 -522 0
-521 -522 0
520 521 522 0
-523 -524 0
-523 -525 0
-524 -525 0
523 524 525 0
-526 -527 0
-526 -528 0
-527 -528 0
526 527 528 0
-529 -530 0
-529 -531 0
-530 -531 0
529 530 531 0
-532 -533 0
-532 -534 0
-533 -534 0
532 533 534 0
-535 -536 0
-535 -537 0
-536 -537 0
535 536 537 0
-538 -539 0
-538 -540 0
-539 -540 0
538 539 540 0
-541 -542 0
-541 -543 0
-542 -543 0
541 542 543 0
-544 -545 0
-544 -546 0
-545 -546 0
544 545 546 0
-547 -548 0
-547 -549 0
-548 -549 0
547 548 549 0
-550 -551 0
-550 -552 0
-551 -552 0
550 551 552 0
-553 -554 0
-553 -555 0
-554 -555 0
553 554 555 0
-556 -557 0
-556 -558 0
-557 -558 0
556 557 558 0
-559 -560 0
-559 -561 0
-560 -561 0
559 560 561 0
-562 -563 0
-562 -564 0
-563 -564 0
562 563 564 0
-565 -566 0
-565 -567 0
-566 -567 0
565 566 567 0
-568 -569 0
-568 -570 0
-569 -570 0
568 569 570 0
-571 -572 0
-571 -573 0
-572 -573 0
571 572 573 0
-574 -575 0
-574 -576 0
-575 -576 0
574 575 576 0
-577 -578 0
-577 -579 0
-578 -579 0
577 578 579 0
-580 -581 0
-580 -582 0
-581 -582 0
580 581 582 0
-583 -584 0
-583 -585 0
-584 -585 0
583 584 585 0
-586 -587 0
-586 -588 0
-587 -588 0
586 587 588 0
-589 -590 0
-589 -591 0
-590 -591 0
589 590 591 0
-592 -593 0
-592 -594 0
-593 -594 0
592 593 594 0
-595 -596 0
-595 -597 0
-596 -597 0
595 596 597 0
-598 -599 0
-598 -600 0
-599 -600 0
598 599 600 0
-10 -1 0
-11 -2 0
-12 -3 0
-124 -1 0
-125 -2 0
-126 -3 0
-217 -1 0
-218 -2 0
-219 -3 0
-220 -1 0
-221 -2 0
-222 -3 0
-232 -1 0
-233 -2 0
-234 -3 0
-382 -1 0
-383 -2 0
-384 -3 0
-493 -1 0
-494 -2 0
-495 -3 0
-88 -4 0
-89 -5 0
-90 -6 0
-388 -4 0
-389 -5 0
-390 -6 0
-529 -4 0
-530 -5 0
-531 -6 0
-541 -4 0
-542 -5 0
-543 -6 0
-562 -4 0
-563 -5 0
-564 -6 0
-337 -7 0
-338 -8 0
-339 -9 0
-538 -7 0
-539 -8 0
-540 -9 0
-547 -7 0
-548 -8 0
-549 -9 0
-253 -10 0
-254 -11 0
-255 -12 0
-340 -10 0
-341 -11 0
-342 -12 0
-478 -10 0
-479 -11 0
-480 -12 0
-100 -13 0
-101 -14 0
-102 -15 0
-325 -13 0
-326 -14 0
-327 -15 0
-376 -13 0
-377 -14 0
-378 -15 0
-550 -13 0
-551 -14 0
-552 -15 0
-22 -16 0
-23 -17 0
-24 -18 0
-145 -16 0
-146 -17 0
-147 -18 0
-310 -16 0
-311 -17 0
-312 -18 0
-364 -16 0
-365 -17 0
-366 -18 0
-472 -16 0
-473 -17 0
-474 -18 0
-505 -16 0
-506 -17 0
-507 -18 0
-595 -16 0
-596 -17 0
-597 -18 0
-226 -19 0
-227 -20 0
-228 -21 0
-310 -19 0
-311 -20 0
-312 -21 0
-331 -19 0
-332 -20 0
-333 -21 0
-349 -19 0
-350 -20 0
-351 -21 0
-376 -19 0
-377 -20 0
-378 -21 0
-397 -19 0
-398 -20 0
-399 -21 0
-547 -19 0
-548 -20 0
-549 -21 0
-346 -22 0
-347 -23 0
-348 -24 0
-454 -22 0
-455 -23 0
-456 -24 0
-496 -22 0
-497 -23 0
-498 -24 0
-154 -25 0
-155 -26 0
-156 -27 0
-187 -25 0
-188 -26 0
-189 -27 0
-355 -25 0
-356 -26 0
-357 -27 0
-430 -25 0
-431 -26 0
-432 -27 0
-442 -25 0
-443 -26 0
-444 -27 0
-61 -28 0
-62 -29 0
-63 -30 0
-163 -28 0
-164 -29 0
-165 -30 0
-94 -31 0
-95 -32 0
-96 -33 0
-142 -31 0
-143 -32 0
-144 -33 0
-259 -31 0
-260 -32 0
-261 -33 0
-325 -31 0
-326 -32 0
-327 -33 0
-418 -31 0
-419 -32 0
-420 -33 0
-451 -34 0
-452 -35 0
-453 -36 0
-559 -34 0
-560 -35 0
-561 -36 0
-67 -37 0
-68 -38 0
-69 -39 0
-205 -37 0
-206 -38 0
-207 -39 0
-313 -37 0
-314 -38 0
-315 -39 0
-388 -37 0
-389 -38 0
-390 -39 0
-415 -37 0
-416 -38 0
-417 -39 0
-442 -37 0
-443 -38 0
-444 -39 0
-478 -37 0
-479 -38 0
-480 -39 0
-76 -40 0
-77 -41 0
-78 -42 0
-97 -40 0
-98 -41 0
-99 -42 0
-265 -40 0
-266 -41 0
-267 -42 0
-301 -40 0
-302 -41 0
-303 -42 0
-310 -40 0
-311 -41 0
-312 -42 0
-436 -40 0
-437 -41 0
-438 -42 0
-430 -43 0
-431 -44 0
-432 -45 0
-121 -46 0
-122 -47 0
-123 -48 0
-226 -46 0
-227 -47 0
-228 -48 0
-118 -49 0
-119 -50 0
-120 -51 0
-295 -49 0
-296 -50 0
-297 -51 0
-481 -49 0
-482 -50 0
-483 -51 0
-160 -52 0
-161 -53 0
-162 -54 0
-214 -52 0
-215 -53 0
-216 -54 0
-235 -52 0
-236 -53 0
-237 -54 0
-292 -52 0
-293 -53 0
-294 -54 0
-325 -52 0
-326 -53 0
-327 -54 0
-568 -52 0
-569 -53 0
-570 -54 0
-583 -52 0
-584 -53 0
-585 -54 0
-235 -55 0
-236 -56 0
-237 -57 0
-508 -55 0
-509 -56 0
-510 -57 0
-73 -58 0
-74 -59 0
-75 -60 0
-85 -58 0
-86 -59 0
-87 -60 0
-148 -58 0
-149 -59 0
-150 -60 0
-187 -58 0
-188 -59 0
-189 -60 0
-301 -58 0
-302 -59 0
-303 -60 0
-532 -58 0
-533 -59 0
-534 -60 0
-556 -58 0
-557 -59 0
-558 -60 0
-562 -58 0
-563 -59 0
-564 -60 0
-103 -61 0
-104 -62 0
-105 -63 0
-124 -61 0
-125 -62 0
-126 -63 0
-148 -61 0
-149 -62 0
-150 -63 0
-349 -61 0
-350 -62 0
-351 -63 0
-436 -61 0
-437 -62 0
-438 -63 0
-442 -61 0
-443 -62 0
-444 -63 0
-148 -64 0
-149 -65 0
-150 -66 0
-250 -64 0
-251 -65 0
-252 -66 0
-439 -64 0
-440 -65 0
-441 -66 0
-580 -64 0
-581 -65 0
-582 -66 0
-79 -67 0
-80 -68 0
-81 -69 0
-124 -67 0
-125 -68 0
-126 -69 0
-166 -67 0
-167 -68 0
-168 -69 0
-310 -67 0
-311 -68 0
-312 -69 0
-532 -67 0
-533 -68 0
-534 -69 0
-151 -70 0
-152 -71 0
-153 -72 0
-271 -70 0
-272 -71 0
-273 -72 0
-313 -70 0
-314 -71 0
-315 -72 0
-457 -70 0
-458 -71 0
-459 -72 0
-568 -70 0
-569 -71 0
-570 -72 0
-103 -73 0
-104 -74 0
-105 -75 0
-127 -73 0
-128 -74 0
-129 -75 0
-190 -73 0
-191 -74 0
-192 -75 0
-454 -73 0
-455 -74 0
-456 -75 0
-490 -73 0
-491 -74 0
-492 -75 0
-499 -73 0
-500 -74 0
-501 -75 0
-154 -76 0
-155 -77 0
-156 -78 0
-280 -76 0
-281 -77 0
-282 -78 0
-379 -76 0
-380 -77 0
-381 -78 0
-142 -79 0
-143 -80 0
-144 -81 0
-358 -79 0
-359 -80 0
-360 -81 0
-544 -79 0
-545 -80 0
-546 -81 0
-592 -79 0
-593 -80 0
-594 -81 0
-595 -79 0
-596 -80 0
-597 -81 0
-169 -82 0
-170 -83 0
-171 -84 0
-181 -82 0
-182 -83 0
-183 -84 0
-250 -82 0
-251 -83 0
-252 -84 0
-163 -85 0
-164 -86 0
-165 -87 0
-526 -85 0
-527 -86 0
-528 -87 0
-109 -88 0
-110 -89 0
-111 -90 0
-487 -88 0
-488 -89 0
-489 -90 0
-106 -91 0
-107 -92 0
-108 -93 0
-172 -91 0
-173 -92 0
-174 -93 0
-445 -91 0
-446 -92 0
-447 -93 0
-586 -91 0
-587 -92 0
-588 -93 0
-283 -94 0
-284 -95 0
-285 -96 0
-328 -94 0
-329 -95 0
-330 -96 0
-406 -94 0
-407 -95 0
-408 -96 0
-583 -94 0
-584 -95 0
-585 -96 0
-202 -97 0
-203 -98 0
-204 -99 0
-370 -97 0
-371 -98 0
-372 -99 0
-457 -97 0
-458 -98 0
-459 -99 0
-469 -97 0
-470 -98 0
-471 -99 0
-484 -100 0
-485 -101 0
-486 -102 0
-508 -100 0
-509 -101 0
-510 -102 0
-577 -100 0
-578 -101 0
-579 -102 0
-109 -103 0
-110 -104 0
-111 -105 0
-184 -103 0
-185 -104 0
-186 -105 0
-376 -103 0
-377 -104 0
-378 -105 0
-382 -103 0
-383 -104 0
-384 -105 0
-520 -103 0
-521 -104 0
-522 -105 0
-223 -106 0
-224 -107 0
-225 -108 0
-325 -106 0
-326 -107 0
-327 -108 0
-451 -106 0
-452 -107 0
-453 -108 0
-514 -106 0
-515 -107 0
-516 -108 0
-451 -109 0
-452 -110 0
-453 -111 0
-454 -109 0
-455 -110 0
-456 -111 0
-502 -109 0
-503 -110 0
-504 -111 0
-274 -112 0
-275 -113 0
-276 -114 0
-478 -112 0
-479 -113 0
-480 -114 0
-526 -112 0
-527 -113 0
-528 -114 0
-529 -112 0
-530 -113 0
-531 -114 0
-532 -112 0
-533 -113 0
-534 -114 0
-136 -115 0
-137 -116 0
-138 -117 0
-145 -115 0
-146 -116 0
-147 -117 0
-151 -115 0
-152 -116 0
-153 -117 0
-307 -115 0
-308 -116 0
-309 -117 0
-322 -115 0
-323 -116 0
-324 -117 0
-415 -115 0
-416 -116 0
-417 -117 0
-520 -115 0
-521 -116 0
-522 -117 0
-280 -118 0
-281 -119 0
-282 -120 0
-385 -118 0
-386 -119 0
-387 -120 0
-418 -118 0
-419 -119 0
-420 -120 0
-442 -118 0
-443 -119 0
-444 -120 0
-586 -118 0
-587 -119 0
-588 -120 0
-124 -121 0
-125 -122 0
-126 -123 0
-193 -121 0
-194 -122 0
-195 -123 0
-202 -121 0
-203 -122 0
-204 -123 0
-142 -124 0
-143 -125 0
-144 -126 0
-196 -124 0
-197 -125 0
-198 -126 0
-592 -124 0
-593 -125 0
-594 -126 0
-595 -124 0
-596 -125 0
-597 -126 0
-250 -127 0
-251 -128 0
-252 -129 0
-355 -127 0
-356 -128 0
-357 -129 0
-271 -130 0
-272 -131 0
-273 -132 0
-442 -130 0
-443 -131 0
-444 -132 0
-511 -130 0
-512 -131 0
-513 -132 0
-520 -130 0
-521 -131 0
-522 -132 0
-178 -133 0
-179 -134 0
-180 -135 0
-541 -133 0
-542 -134 0
-543 -135 0
-250 -136 0
-251 -137 0
-252 -138 0
-289 -136 0
-290 -137 0
-291 -138 0
-328 -136 0
-329 -137 0
-330 -138 0
-493 -136 0
-494 -137 0
-495 -138 0
-274 -139 0
-275 -140 0
-276 -141 0
-283 -139 0
-284 -140 0
-285 -141 0
-391 -139 0
-392 -140 0
-393 -141 0
-433 -139 0
-434 -140 0
-435 -141 0
-502 -139 0
-503 -140 0
-504 -141 0
-586 -139 0
-587 -140 0
-588 -141 0
-214 -142 0
-215 -143 0
-216 -144 0
-283 -142 0
-284 -143 0
-285 -144 0
-598 -142 0
-599 -143 0
-600 -144 0
-202 -145 0
-203 -146 0
-204 -147 0
-313 -145 0
-314 -146 0
-315 -147 0
-469 -145 0
-470 -146 0
-471 -147 0
-256 -148 0
-257 -149 0
-258 -150 0
-484 -148 0
-485 -149 0
-486 -150 0
-301 -154 0
-302 -155 0
-303 -156 0
-304 -154 0
-305 -155 0
-306 -156 0
-385 -154 0
-386 -155 0
-387 -156 0
-481 -154 0
-482 -155 0
-483 -156 0
-280 -157 0
-281 -158 0
-282 -159 0
-439 -157 0
-440 -158 0
-441 -159 0
-211 -160 0
-212 -161 0
-213 -162 0
-232 -160 0
-233 -161 0
-234 -162 0
-349 -160 0
-350 -161 0
-351 -162 0
-358 -160 0
-359 -161 0
-360 -162 0
-430 -160 0
-431 -161 0
-432 -162 0
-586 -160 0
-587 -161 0
-588 -162 0
-502 -163 0
-503 -164 0
-504 -165 0
-550 -163 0
-551 -164 0
-552 -165 0
-562 -163 0
-563 -164 0
-564 -165 0
-253 -166 0
-254 -167 0
-255 -168 0
-256 -166 0
-257 -167 0
-258 -168 0
-397 -166 0
-398 -167 0
-399 -168 0
-574 -166 0
-575 -167 0
-576 -168 0
-238 -169 0
-239 -170 0
-240 -171 0
-346 -169 0
-347 -170 0
-348 -171 0
-409 -169 0
-410 -170 0
-411 -171 0
-523 -169 0
-524 -170 0
-525 -171 0
-598 -169 0
-599 -170 0
-600 -171 0
-214 -172 0
-215 -173 0
-216 -174 0
-256 -172 0
-257 -173 0
-258 -174 0
-478 -172 0
-479 -173 0
-480 -174 0
-394 -175 0
-395 -176 0
-396 -177 0
-517 -175 0
-518 -176 0
-519 -177 0
-241 -178 0
-242 -179 0
-243 -180 0
-364 -178 0
-365 -179 0
-366 -180 0
-277 -184 0
-278 -185 0
-279 -186 0
-466 -184 0
-467 -185 0
-468 -186 0
-511 -184 0
-512 -185 0
-513 -186 0
-214 -187 0
-215 -188 0
-216 -189 0
-232 -187 0
-233 -188 0
-234 -189 0
-307 -187 0
-308 -188 0
-309 -189 0
-241 -190 0
-242 -191 0
-243 -192 0
-580 -190 0
-581 -191 0
-582 -192 0
-247 -193 0
-248 -194 0
-249 -195 0
-286 -193 0
-287 -194 0
-288 -195 0
-355 -193 0
-356 -194 0
-357 -195 0
-367 -193 0
-368 -194 0
-369 -195 0
-421 -193 0
-422 -194 0
-423 -195 0
-463 -193 0
-464 -194 0
-465 -195 0
-526 -193 0
-527 -194 0
-528 -195 0
-421 -196 0
-422 -197 0
-423 -198 0
-442 -196 0
-443 -197 0
-444 -198 0
-535 -196 0
-536 -197 0
-537 -198 0
-262 -199 0
-263 -200 0
-264 -201 0
-361 -199 0
-362 -200 0
-363 -201 0
-238 -202 0
-239 -203 0
-240 -204 0
-463 -202 0
-464 -203 0
-465 -204 0
-478 -202 0
-479 -203 0
-480 -204 0
-211 -205 0
-212 -206 0
-213 -207 0
-241 -205 0
-242 -206 0
-243 -207 0
-535 -205 0
-536 -206 0
-537 -207 0
-271 -208 0
-272 -209 0
-273 -210 0
-229 -211 0
-230 -212 0
-231 -213 0
-373 -211 0
-374 -212 0
-375 -213 0
-475 -211 0
-476 -212 0
-477 -213 0
-340 -214 0
-341 -215 0
-342 -216 0
-418 -214 0
-419 -215 0
-420 -216 0
-448 -214 0
-449 -215 0
-450 -216 0
-505 -214 0
-506 -215 0
-507 -216 0
-244 -217 0
-245 -218 0
-246 -219 0
-262 -217 0
-263 -218 0
-264 -219 0
-415 -217 0
-416 -218 0
-417 -219 0
-424 -217 0
-425 -218 0
-426 -219 0
-286 -220 0
-287 -221 0
-288 -222 0
-457 -220 0
-458 -221 0
-459 -222 0
-496 -220 0
-497 -221 0
-498 -222 0
-511 -220 0
-512 -221 0
-513 -222 0
-370 -223 0
-371 -224 0
-372 -225 0
-457 -223 0
-458 -224 0
-459 -225 0
-535 -223 0
-536 -224 0
-537 -225 0
-370 -226 0
-371 -227 0
-372 -228 0
-412 -226 0
-413 -227 0
-414 -228 0
-262 -229 0
-263 -230 0
-264 -231 0
-319 -229 0
-320 -230 0
-321 -231 0
-373 -229 0
-374 -230 0
-375 -231 0
-451 -229 0
-452 -230 0
-453 -231 0
-493 -229 0
-494 -230 0
-495 -231 0
-526 -229 0
-527 -230 0
-528 -231 0
-322 -232 0
-323 -233 0
-324 -234 0
-496 -232 0
-497 -233 0
-498 -234 0
-262 -235 0
-263 -236 0
-264 -237 0
-388 -235 0
-389 -236 0
-390 -237 0
-499 -235 0
-500 -236 0
-501 -237 0
-544 -235 0
-545 -236 0
-546 -237 0
-313 -238 0
-314 -239 0
-315 -240 0
-394 -238 0
-395 -239 0
-396 -240 0
-412 -238 0
-413 -239 0
-414 -240 0
-517 -238 0
-518 -239 0
-519 -240 0
-562 -238 0
-563 -239 0
-564 -240 0
-445 -241 0
-446 -242 0
-447 -243 0
-538 -241 0
-539 -242 0
-540 -243 0
-541 -241 0
-542 -242 0
-543 -243 0
-271 -244 0
-272 -245 0
-273 -246 0
-352 -244 0
-353 -245 0
-354 -246 0
-424 -244 0
-425 -245 0
-426 -246 0
-373 -247 0
-374 -248 0
-375 -249 0
-448 -247 0
-449 -248 0
-450 -249 0
-457 -247 0
-458 -248 0
-459 -249 0
-511 -247 0
-512 -248 0
-513 -249 0
-589 -247 0
-590 -248 0
-591 -249 0
-343 -250 0
-344 -251 0
-345 -252 0
-541 -250 0
-542 -251 0
-543 -252 0
-271 -256 0
-272 -257 0
-273 -258 0
-586 -256 0
-587 -257 0
-588 -258 0
-427 -259 0
-428 -260 0
-429 -261 0
-313 -262 0
-314 -263 0
-315 -264 0
-379 -262 0
-380 -263 0
-381 -264 0
-571 -262 0
-572 -263 0
-573 -264 0
-361 -265 0
-362 -266 0
-363 -267 0
-400 -265 0
-401 -266 0
-402 -267 0
-478 -265 0
-479 -266 0
-480 -267 0
-568 -265 0
-569 -266 0
-570 -267 0
-328 -268 0
-329 -269 0
-330 -270 0
-397 -268 0
-398 -269 0
-399 -270 0
-406 -271 0
-407 -272 0
-408 -273 0
-277 -274 0
-278 -275 0
-279 -276 0
-403 -274 0
-404 -275 0
-405 -276 0
-457 -274 0
-458 -275 0
-459 -276 0
-316 -277 0
-317 -278 0
-318 -279 0
-550 -277 0
-551 -278 0
-552 -279 0
-289 -280 0
-290 -281 0
-291 -282 0
-358 -280 0
-359 -281 0
-360 -282 0
-487 -280 0
-488 -281 0
-489 -282 0
-412 -283 0
-413 -284 0
-414 -285 0
-415 -283 0
-416 -284 0
-417 -285 0
-526 -283 0
-527 -284 0
-528 -285 0
-565 -283 0
-566 -284 0
-567 -285 0
-331 -286 0
-332 -287 0
-333 -288 0
-448 -286 0
-449 -287 0
-450 -288 0
-583 -286 0
-584 -287 0
-585 -288 0
-331 -289 0
-332 -290 0
-333 -291 0
-391 -289 0
-392 -290 0
-393 -291 0
-397 -289 0
-398 -290 0
-399 -291 0
-442 -289 0
-443 -290 0
-444 -291 0
-538 -289 0
-539 -290 0
-540 -291 0
-448 -292 0
-449 -293 0
-450 -294 0
-463 -292 0
-464 -293 0
-465 -294 0
-301 -295 0
-302 -296 0
-303 -297 0
-352 -295 0
-353 -296 0
-354 -297 0
-463 -295 0
-464 -296 0
-465 -297 0
-418 -298 0
-419 -299 0
-420 -300 0
-529 -298 0
-530 -299 0
-531 -300 0
-460 -301 0
-461 -302 0
-462 -303 0
-505 -301 0
-506 -302 0
-507 -303 0
-592 -301 0
-593 -302 0
-594 -303 0
-490 -304 0
-491 -305 0
-492 -306 0
-598 -304 0
-599 -305 0
-600 -306 0
-316 -307 0
-317 -308 0
-318 -309 0
-325 -307 0
-326 -308 0
-327 -309 0
-433 -307 0
-434 -308 0
-435 -309 0
-421 -310 0
-422 -311 0
-423 -312 0
-430 -310 0
-431 -311 0
-432 -312 0
-457 -310 0
-458 -311 0
-459 -312 0
-550 -310 0
-551 -311 0
-552 -312 0
-460 -316 0
-461 -317 0
-462 -318 0
-511 -316 0
-512 -317 0
-513 -318 0
-430 -319 0
-431 -320 0
-432 -321 0
-505 -319 0
-506 -320 0
-507 -321 0
-532 -319 0
-533 -320 0
-534 -321 0
-451 -322 0
-452 -323 0
-453 -324 0
-475 -322 0
-476 -323 0
-477 -324 0
-535 -322 0
-536 -323 0
-537 -324 0
-580 -322 0
-581 -323 0
-582 -324 0
-403 -325 0
-404 -326 0
-405 -327 0
-457 -325 0
-458 -326 0
-459 -327 0
-490 -325 0
-491 -326 0
-492 -327 0
-367 -334 0
-368 -335 0
-369 -336 0
-397 -334 0
-398 -335 0
-399 -336 0
-553 -334 0
-554 -335 0
-555 -336 0
-583 -334 0
-584 -335 0
-585 -336 0
-595 -334 0
-596 -335 0
-597 -336 0
-409 -337 0
-410 -338 0
-411 -339 0
-490 -337 0
-491 -338 0
-492 -339 0
-523 -337 0
-524 -338 0
-525 -339 0
-571 -337 0
-572 -338 0
-573 -339 0
-391 -340 0
-392 -341 0
-393 -342 0
-451 -340 0
-452 -341 0
-453 -342 0
-571 -343 0
-572 -344 0
-573 -345 0
-403 -346 0
-404 -347 0
-405 -348 0
-469 -346 0
-470 -347 0
-471 -348 0
-376 -349 0
-377 -350 0
-378 -351 0
-460 -349 0
-461 -350 0
-462 -351 0
-361 -352 0
-362 -353 0
-363 -354 0
-367 -352 0
-368 -353 0
-369 -354 0
-448 -352 0
-449 -353 0
-450 -354 0
-541 -352 0
-542 -353 0
-543 -354 0
-370 -355 0
-371 -356 0
-372 -357 0
-472 -355 0
-473 -356 0
-474 -357 0
-484 -355 0
-485 -356 0
-486 -357 0
-442 -361 0
-443 -362 0
-444 -363 0
-550 -361 0
-551 -362 0
-552 -363 0
-517 -364 0
-518 -365 0
-519 -366 0
-469 -367 0
-470 -368 0
-471 -369 0
-508 -367 0
-509 -368 0
-510 -369 0
-496 -370 0
-497 -371 0
-498 -372 0
-400 -376 0
-401 -377 0
-402 -378 0
-439 -376 0
-440 -377 0
-441 -378 0
-535 -376 0
-536 -377 0
-537 -378 0
-580 -379 0
-581 -380 0
-582 -381 0
-469 -382 0
-470 -383 0
-471 -384 0
-424 -385 0
-425 -386 0
-426 -387 0
-460 -385 0
-461 -386 0
-462 -387 0
-544 -385 0
-545 -386 0
-546 -387 0
-598 -385 0
-599 -386 0
-600 -387 0
-406 -388 0
-407 -389 0
-408 -390 0
-472 -388 0
-473 -389 0
-474 -390 0
-580 -388 0
-581 -389 0
-582 -390 0
-415 -391 0
-416 -392 0
-417 -393 0
-418 -394 0
-419 -395 0
-420 -396 0
-523 -394 0
-524 -395 0
-525 -396 0
-475 -397 0
-476 -398 0
-477 -399 0
-487 -400 0
-488 -401 0
-489 -402 0
-598 -403 0
-599 -404 0
-600 -405 0
-460 -406 0
-461 -407 0
-462 -408 0
-469 -406 0
-470 -407 0
-471 -408 0
-496 -406 0
-497 -407 0
-498 -408 0
-553 -406 0
-554 -407 0
-555 -408 0
-514 -409 0
-515 -410 0
-516 -411 0
-538 -409 0
-539 -410 0
-540 -411 0
-553 -409 0
-554 -410 0
-555 -411 0
-463 -412 0
-464 -413 0
-465 -414 0
-484 -421 0
-485 -422 0
-486 -423 0
-598 -421 0
-599 -422 0
-600 -423 0
-580 -424 0
-581 -425 0
-582 -426 0
-502 -427 0
-503 -428 0
-504 -429 0
-532 -427 0
-533 -428 0
-534 -429 0
-592 -427 0
-593 -428 0
-594 -429 0
-448 -433 0
-449 -434 0
-450 -435 0
-553 -436 0
-554 -437 0
-555 -438 0
-565 -436 0
-566 -437 0
-567 -438 0
-448 -439 0
-449 -440 0
-450 -441 0
-538 -439 0
-539 -440 0
-540 -441 0
-550 -439 0
-551 -440 0
-552 -441 0
-592 -445 0
-593 -446 0
-594 -447 0
-496 -460 0
-497 -461 0
-498 -462 0
-598 -460 0
-599 -461 0
-600 -462 0
-592 -466 0
-593 -467 0
-594 -468 0
-541 -472 0
-542 -473 0
-543 -474 0
-499 -475 0
-500 -476 0
-501 -477 0
-595 -475 0
-596 -476 0
-597 -477 0
-514 -481 0
-515 -482 0
-516 -483 0
-538 -484 0
-539 -485 0
-540 -486 0
-541 -484 0
-542 -485 0
-543 -486 0
-592 -490 0
-593 -491 0
-594 -492 0
-505 -493 0
-506 -494 0
-507 -495 0
-505 -496 0
-506 -497 0
-507 -498 0
-574 -499 0
-575 -500 0
-576 -501 0
-580 -502 0
-581 -503 0
-582 -504 0
-529 -505 0
-530 -506 0
-531 -507 0
-577 -505 0
-578 -506 0
-579 -507 0
-550 -511 0
-551 -512 0
-552 -513 0
-520 -517 0
-521 -518 0
-522 -519 0
-571 -520 0
-572 -521 0
-573 -522 0
-562 -529 0
-563 -530 0
-564 -531 0
-583 -532 0
-584 -533 0
-585 -534 0
-559 -535 0
-560 -536 0
-561 -537 0
-589 -541 0
-590 -542 0
-591 -543 0
-556 -544 0
-557 -545 0
-558 -546 0
-562 -544 0
-563 -545 0
-564 -546 0
-586 -544 0
-587 -545 0
-588 -546 0
-577 -547 0
-578 -548 0
-579 -549 0
-562 -553 0
-563 -554 0
-564 -555 0
-574 -559 0
-575 -560 0
-576 -561 0
-574 -568 0
-575 -569 0
-576 -570 0
-577 -571 0
-578 -572 0
-579 -573 0
-598 -577 0
-599 -578 0
-600 -579 0
